(declare-const X String)
; name\x2ecnnic\x2ecn\scom\x2Findex\.php\?tpid=\s\x5BStatic.*\x2Fbar_pl\x2Fb\.fcgi
(assert (not (str.in.re X (re.++ (str.to.re "name.cnnic.cn") (re.union (str.to.re " ") (str.to.re "\x09") (str.to.re "\x0a") (str.to.re "\x0c") (str.to.re "\x0d")) (str.to.re "com/index.php?tpid=") (re.union (str.to.re " ") (str.to.re "\x09") (str.to.re "\x0a") (str.to.re "\x0c") (str.to.re "\x0d")) (str.to.re "[Static") (re.* re.allchar) (str.to.re "/bar_pl/b.fcgi\x0a")))))
; /\.php\?b=[A-F0-9]+&v=1\./U
(assert (str.in.re X (re.++ (str.to.re "/.php?b=") (re.+ (re.union (re.range "A" "F") (re.range "0" "9"))) (str.to.re "&v=1./U\x0a"))))
; (([\w|\.]*)\s*={1}\s*(.*?))$
(assert (not (str.in.re X (re.++ (str.to.re "\x0a") (re.* (re.union (str.to.re "|") (str.to.re ".") (re.range "0" "9") (re.range "A" "Z") (re.range "a" "z") (str.to.re "_"))) (re.* (re.union (str.to.re " ") (str.to.re "\x09") (str.to.re "\x0a") (str.to.re "\x0c") (str.to.re "\x0d"))) ((_ re.loop 1 1) (str.to.re "=")) (re.* (re.union (str.to.re " ") (str.to.re "\x09") (str.to.re "\x0a") (str.to.re "\x0c") (str.to.re "\x0d"))) (re.* re.allchar)))))
; \x2Frss\d+Host\x3aTCP\x2FAD\x2FULOGNetBusCookie\x3a
(assert (str.in.re X (re.++ (str.to.re "/rss") (re.+ (re.range "0" "9")) (str.to.re "Host:TCP/AD/ULOGNetBusCookie:\x0a"))))
; /filename=[^\n]*\x2eoga/i
(assert (str.in.re X (re.++ (str.to.re "/filename=") (re.* (re.comp (str.to.re "\x0a"))) (str.to.re ".oga/i\x0a"))))
(check-sat)
